DIMACS2
40 48 56 156 128 91 143 137 127 36 46 132 1 125 142 38 88 64 34 49 98 40 123 71 148 29 131 61 32 10 44 63 89 106 14 134 4 51 126 121 93
p edge 160 1225
e 0 24 2.0
e 0 123 39.0
e 0 141 1.0
e 0 3 1.0
e 0 55 1.0
e 0 110 1.0
e 0 137 30.0
e 0 94 1.0
e 1 96 31.0
e 1 40 20.0
e 1 107 4.0
e 1 72 42.0
e 1 153 10.0
e 1 101 8.0
e 1 123 29.0
e 1 78 21.0
e 2 154 1.0
e 2 29 12.0
e 2 32 44.0
e 2 6 1.0
e 2 157 1.0
e 2 27 1.0
e 2 122 1.0
e 2 96 1.0
e 3 155 1.0
e 3 40 10.0
e 3 113 1.0
e 3 153 1.0
e 3 28 1.0
e 3 55 1.0
e 3 64 42.0
e 3 152 1.0
e 4 156 33.0
e 4 147 24.0
e 4 121 5.0
e 4 13 39.0
e 4 10 45.0
e 4 157 9.0
e 4 110 48.0
e 4 98 41.0
e 5 10 41.0
e 5 50 1.0
e 5 24 1.0
e 5 56 8.0
e 5 21 1.0
e 5 12 1.0
e 5 78 1.0
e 5 89 25.0
e 6 156 33.0
e 6 54 1.0
e 6 114 1.0
e 6 97 1.0
e 6 145 1.0
e 6 107 1.0
e 6 138 1.0
e 6 3 1.0
e 7 31 1.0
e 7 20 1.0
e 7 109 3.0
e 7 158 1.0
e 7 58 1.0
e 7 103 1.0
e 7 137 35.0
e 7 131 27.0
e 8 88 30.0
e 8 20 1.0
e 8 101 1.0
e 8 106 43.0
e 8 126 35.0
e 8 109 1.0
e 8 7 1.0
e 8 146 1.0
e 9 93 2.0
e 9 158 1.0
e 9 50 1.0
e 9 128 21.0
e 9 26 1.0
e 9 142 19.0
e 9 52 1.0
e 9 70 1.0
e 10 30 15.0
e 10 148 37.0
e 10 34 42.0
e 10 100 34.0
e 10 40 2.0
e 10 158 47.0
e 10 25 41.0
e 10 29 42.0
e 11 124 1.0
e 11 128 28.0
e 11 38 24.0
e 11 92 1.0
e 11 45 1.0
e 11 46 8.0
e 11 91 28.0
e 11 12 1.0
e 12 43 1.0
e 12 95 1.0
e 12 124 1.0
e 12 103 1.0
e 12 4 18.0
e 12 145 1.0
e 12 105 1.0
e 12 118 1.0
e 13 26 1.0
e 13 76 1.0
e 13 134 26.0
e 13 53 1.0
e 13 89 46.0
e 13 44 22.0
e 13 96 1.0
e 13 37 1.0
e 14 100 20.0
e 14 158 19.0
e 14 153 7.0
e 14 68 34.0
e 14 0 1.0
e 14 87 44.0
e 14 122 3.0
e 14 26 48.0
e 15 19 1.0
e 15 140 1.0
e 15 135 1.0
e 15 23 1.0
e 15 63 10.0
e 15 137 31.0
e 15 118 1.0
e 15 83 1.0
e 16 3 1.0
e 16 23 1.0
e 16 103 1.0
e 16 125 7.0
e 16 154 1.0
e 16 117 1.0
e 16 97 1.0
e 16 107 1.0
e 17 48 44.0
e 17 22 1.0
e 17 86 1.0
e 17 116 1.0
e 17 126 16.0
e 17 106 36.0
e 17 39 1.0
e 17 141 1.0
e 18 134 6.0
e 18 79 1.0
e 18 130 1.0
e 18 12 1.0
e 18 40 11.0
e 18 100 1.0
e 18 126 20.0
e 18 45 1.0
e 19 74 1.0
e 19 62 1.0
e 19 24 2.0
e 19 48 26.0
e 19 116 1.0
e 19 17 1.0
e 19 47 1.0
e 19 118 1.0
e 20 151 1.0
e 20 64 11.0
e 20 88 22.0
e 20 112 1.0
e 20 100 1.0
e 20 65 1.0
e 20 78 1.0
e 20 10 28.0
e 21 70 1.0
e 21 105 1.0
e 21 52 1.0
e 21 67 1.0
e 21 158 1.0
e 21 137 35.0
e 21 57 1.0
e 21 44 44.0
e 22 100 3.0
e 22 84 1.0
e 22 114 1.0
e 22 145 1.0
e 22 143 6.0
e 22 73 3.0
e 22 83 2.0
e 22 74 1.0
e 23 67 1.0
e 23 120 1.0
e 23 28 1.0
e 23 36 11.0
e 23 154 1.0
e 23 136 1.0
e 23 59 1.0
e 23 155 1.0
e 24 43 2.0
e 24 131 12.0
e 24 35 1.0
e 24 33 2.0
e 24 133 1.0
e 24 65 2.0
e 24 110 2.0
e 25 108 1.0
e 25 138 1.0
e 25 123 44.0
e 25 114 1.0
e 25 45 1.0
e 25 39 1.0
e 25 26 1.0
e 25 46 48.0
e 26 140 1.0
e 26 115 1.0
e 26 141 1.0
e 26 106 45.0
e 26 148 41.0
e 26 125 10.0
e 26 88 16.0
e 26 28 1.0
e 27 151 1.0
e 27 142 18.0
e 27 50 1.0
e 27 12 1.0
e 27 75 1.0
e 27 130 1.0
e 27 115 1.0
e 28 99 1.0
e 28 41 1.0
e 28 13 1.0
e 28 137 21.0
e 28 104 1.0
e 28 5 1.0
e 28 151 1.0
e 28 128 4.0
e 29 75 22.0
e 29 68 1.0
e 29 3 27.0
e 29 150 47.0
e 29 55 40.0
e 29 126 35.0
e 29 66 7.0
e 29 7 10.0
e 30 38 18.0
e 30 100 1.0
e 30 49 25.0
e 30 88 1.0
e 30 98 41.0
e 30 144 1.0
e 31 113 1.0
e 31 129 1.0
e 31 130 1.0
e 31 105 1.0
e 31 26 1.0
e 31 133 1.0
e 31 24 2.0
e 31 16 1.0
e 32 54 41.0
e 32 145 36.0
e 32 83 42.0
e 32 53 38.0
e 32 64 14.0
e 32 110 13.0
e 32 81 47.0
e 32 25 33.0
e 33 117 1.0
e 33 12 1.0
e 33 72 1.0
e 33 48 39.0
e 33 98 41.0
e 33 59 1.0
e 33 77 1.0
e 34 33 11.0
e 34 150 26.0
e 34 31 3.0
e 34 26 34.0
e 34 146 33.0
e 34 87 17.0
e 34 41 27.0
e 35 16 1.0
e 35 31 1.0
e 35 80 1.0
e 35 36 29.0
e 35 66 1.0
e 35 18 1.0
e 35 60 1.0
e 35 148 36.0
e 36 9 49.0
e 36 11 43.0
e 36 82 8.0
e 36 12 22.0
e 36 43 35.0
e 36 58 39.0
e 36 85 13.0
e 36 123 41.0
e 37 52 1.0
e 37 144 1.0
e 37 56 41.0
e 37 27 1.0
e 37 102 1.0
e 37 121 1.0
e 37 106 7.0
e 37 7 1.0
e 38 49 32.0
e 38 111 25.0
e 38 117 35.0
e 38 103 49.0
e 38 156 13.0
e 38 83 16.0
e 38 123 6.0
e 38 122 34.0
e 39 60 1.0
e 39 134 32.0
e 39 90 1.0
e 39 0 1.0
e 39 20 1.0
e 39 150 1.0
e 39 3 1.0
e 40 7 3.0
e 40 78 29.0
e 40 108 40.0
e 40 65 35.0
e 40 70 8.0
e 40 52 25.0
e 40 97 21.0
e 40 116 33.0
e 41 109 1.0
e 41 142 8.0
e 41 58 1.0
e 41 147 1.0
e 41 80 1.0
e 41 131 47.0
e 41 59 1.0
e 41 37 1.0
e 42 51 23.0
e 42 137 11.0
e 42 12 1.0
e 42 69 1.0
e 42 56 23.0
e 42 43 1.0
e 42 81 1.0
e 42 36 30.0
e 43 10 24.0
e 43 128 42.0
e 43 135 1.0
e 43 53 1.0
e 43 46 40.0
e 43 145 1.0
e 43 108 1.0
e 44 9 42.0
e 44 103 21.0
e 44 40 3.0
e 44 31 40.0
e 44 116 6.0
e 44 113 23.0
e 44 16 1.0
e 44 134 25.0
e 45 40 28.0
e 45 120 1.0
e 45 46 44.0
e 45 2 1.0
e 45 50 1.0
e 45 126 2.0
e 45 34 14.0
e 45 82 1.0
e 46 17 18.0
e 46 95 39.0
e 46 28 3.0
e 46 49 47.0
e 46 37 13.0
e 46 107 12.0
e 46 34 48.0
e 47 69 1.0
e 47 133 1.0
e 47 145 1.0
e 47 24 2.0
e 47 156 22.0
e 47 29 4.0
e 47 100 1.0
e 48 138 13.0
e 48 63 46.0
e 48 151 44.0
e 48 76 46.0
e 48 154 36.0
e 48 99 45.0
e 48 97 47.0
e 48 39 34.0
e 49 1 17.0
e 49 7 13.0
e 49 88 39.0
e 49 154 37.0
e 49 79 12.0
e 49 77 17.0
e 49 144 41.0
e 49 100 37.0
e 50 104 1.0
e 50 29 40.0
e 50 51 35.0
e 50 60 1.0
e 50 88 38.0
e 50 97 1.0
e 50 35 1.0
e 50 125 7.0
e 51 74 21.0
e 51 3 48.0
e 51 123 41.0
e 51 141 11.0
e 51 54 8.0
e 51 131 11.0
e 51 124 42.0
e 51 82 39.0
e 52 29 34.0
e 52 151 1.0
e 52 97 1.0
e 52 120 1.0
e 52 18 1.0
e 52 135 1.0
e 52 56 25.0
e 52 137 34.0
e 53 65 1.0
e 53 152 1.0
e 53 87 1.0
e 53 133 1.0
e 53 57 1.0
e 53 119 1.0
e 53 36 16.0
e 53 70 1.0
e 54 128 43.0
e 54 69 1.0
e 54 49 9.0
e 54 68 1.0
e 54 119 1.0
e 54 145 1.0
e 54 5 1.0
e 55 91 36.0
e 55 102 1.0
e 55 108 1.0
e 55 95 1.0
e 55 70 1.0
e 55 42 1.0
e 55 49 40.0
e 56 46 27.0
e 56 105 44.0
e 56 47 24.0
e 56 13 6.0
e 56 145 27.0
e 56 76 25.0
e 56 64 19.0
e 56 21 2.0
e 57 131 47.0
e 57 134 34.0
e 57 143 9.0
e 57 87 1.0
e 57 99 1.0
e 57 63 17.0
e 57 47 1.0
e 57 81 1.0
e 58 96 1.0
e 58 80 1.0
e 58 75 1.0
e 58 93 6.0
e 58 22 1.0
e 58 155 1.0
e 59 116 1.0
e 59 133 1.0
e 59 7 1.0
e 59 54 1.0
e 59 85 1.0
e 59 101 1.0
e 60 33 1.0
e 60 79 1.0
e 60 106 19.0
e 60 29 21.0
e 60 85 1.0
e 60 132 49.0
e 60 93 40.0
e 60 83 1.0
e 61 139 1.0
e 61 29 11.0
e 61 106 13.0
e 61 120 26.0
e 61 130 13.0
e 61 158 3.0
e 61 149 9.0
e 61 105 8.0
e 62 94 1.0
e 62 108 1.0
e 62 127 4.0
e 62 78 1.0
e 62 88 26.0
e 62 8 1.0
e 62 3 1.0
e 62 39 1.0
e 63 152 5.0
e 63 72 10.0
e 63 65 28.0
e 63 29 48.0
e 63 114 38.0
e 63 133 10.0
e 63 111 37.0
e 63 55 40.0
e 64 127 5.0
e 64 101 43.0
e 64 93 16.0
e 64 1 31.0
e 64 31 12.0
e 64 52 41.0
e 64 90 41.0
e 64 150 1.0
e 65 64 9.0
e 65 83 1.0
e 65 70 1.0
e 65 136 1.0
e 65 133 1.0
e 65 101 1.0
e 65 55 1.0
e 65 37 1.0
e 66 101 1.0
e 66 97 1.0
e 66 42 1.0
e 66 16 1.0
e 66 113 1.0
e 66 58 1.0
e 66 30 1.0
e 67 69 1.0
e 67 148 8.0
e 67 72 1.0
e 67 119 1.0
e 67 147 1.0
e 67 29 3.0
e 67 68 1.0
e 67 20 1.0
e 68 21 1.0
e 68 73 1.0
e 68 87 1.0
e 68 151 1.0
e 68 89 14.0
e 68 26 1.0
e 68 23 1.0
e 68 107 1.0
e 69 45 1.0
e 69 109 1.0
e 69 122 1.0
e 69 20 1.0
e 69 82 1.0
e 69 107 1.0
e 69 8 1.0
e 70 126 34.0
e 70 47 1.0
e 70 32 32.0
e 70 61 31.0
e 70 129 1.0
e 70 69 1.0
e 70 81 1.0
e 71 6 17.0
e 71 119 29.0
e 71 16 30.0
e 71 14 24.0
e 71 0 33.0
e 71 86 21.0
e 71 157 9.0
e 72 119 1.0
e 72 34 5.0
e 72 131 28.0
e 72 89 24.0
e 72 68 1.0
e 72 43 1.0
e 72 41 1.0
e 72 128 7.0
e 73 85 1.0
e 73 142 10.0
e 73 23 1.0
e 73 91 13.0
e 73 120 1.0
e 73 20 1.0
e 73 62 1.0
e 73 18 1.0
e 74 104 1.0
e 74 96 1.0
e 74 47 1.0
e 74 149 1.0
e 74 125 18.0
e 74 28 1.0
e 74 39 1.0
e 74 79 1.0
e 75 11 1.0
e 75 119 1.0
e 75 94 1.0
e 75 124 1.0
e 75 28 1.0
e 75 48 18.0
e 75 104 1.0
e 76 9 1.0
e 76 127 30.0
e 76 105 1.0
e 76 70 1.0
e 76 49 15.0
e 76 90 1.0
e 76 58 1.0
e 77 20 1.0
e 77 65 1.0
e 77 38 38.0
e 77 138 1.0
e 77 19 1.0
e 77 130 1.0
e 77 147 1.0
e 77 58 1.0
e 78 106 15.0
e 78 10 7.0
e 78 54 1.0
e 78 137 26.0
e 78 132 24.0
e 78 44 7.0
e 78 124 1.0
e 78 33 1.0
e 79 78 1.0
e 79 76 1.0
e 79 151 1.0
e 79 21 1.0
e 79 126 29.0
e 79 81 1.0
e 79 29 2.0
e 79 111 1.0
e 80 113 1.0
e 80 48 2.0
e 80 81 1.0
e 80 132 41.0
e 80 154 1.0
e 80 110 1.0
e 80 137 16.0
e 80 91 49.0
e 81 116 1.0
e 81 51 27.0
e 81 142 43.0
e 81 133 1.0
e 81 60 1.0
e 81 46 40.0
e 81 7 1.0
e 81 115 1.0
e 82 8 1.0
e 82 152 1.0
e 82 95 1.0
e 82 75 1.0
e 82 13 1.0
e 82 126 14.0
e 82 15 1.0
e 82 109 1.0
e 83 76 1.0
e 83 82 1.0
e 83 157 1.0
e 83 129 1.0
e 83 128 10.0
e 83 10 4.0
e 83 39 1.0
e 83 137 25.0
e 84 36 5.0
e 84 62 1.0
e 84 30 1.0
e 84 4 13.0
e 84 7 1.0
e 84 27 1.0
e 84 49 16.0
e 84 90 1.0
e 85 124 1.0
e 85 147 1.0
e 85 38 4.0
e 85 12 1.0
e 85 117 1.0
e 85 67 1.0
e 85 6 1.0
e 86 25 1.0
e 86 54 1.0
e 86 32 33.0
e 86 38 17.0
e 86 0 1.0
e 86 33 1.0
e 86 154 1.0
e 87 21 1.0
e 87 134 1.0
e 87 66 1.0
e 87 138 1.0
e 87 113 1.0
e 87 43 1.0
e 87 70 1.0
e 88 31 10.0
e 88 126 44.0
e 88 111 38.0
e 88 104 39.0
e 88 56 9.0
e 88 141 26.0
e 88 133 21.0
e 88 65 47.0
e 89 42 17.0
e 89 97 29.0
e 89 140 46.0
e 89 53 12.0
e 89 146 34.0
e 89 41 20.0
e 89 101 38.0
e 89 50 5.0
e 90 15 1.0
e 90 29 43.0
e 90 30 1.0
e 90 108 1.0
e 90 136 1.0
e 90 41 1.0
e 90 77 1.0
e 90 75 1.0
e 91 48 10.0
e 91 47 42.0
e 91 130 21.0
e 91 68 25.0
e 91 30 15.0
e 91 87 31.0
e 91 33 35.0
e 91 23 33.0
e 92 138 1.0
e 92 146 1.0
e 92 16 1.0
e 92 95 1.0
e 92 21 1.0
e 92 35 1.0
e 92 131 25.0
e 92 76 1.0
e 93 38 24.0
e 93 37 41.0
e 93 32 30.0
e 93 5 35.0
e 93 143 2.0
e 93 12 36.0
e 93 2 17.0
e 93 121 16.0
e 94 115 1.0
e 94 146 1.0
e 94 21 1.0
e 94 127 48.0
e 94 56 17.0
e 94 1 38.0
e 94 58 1.0
e 94 155 1.0
e 95 41 1.0
e 95 63 21.0
e 95 113 1.0
e 95 104 1.0
e 95 64 18.0
e 95 16 1.0
e 95 115 1.0
e 95 32 12.0
e 96 70 1.0
e 96 51 42.0
e 96 137 38.0
e 96 140 1.0
e 96 88 19.0
e 96 117 1.0
e 96 54 1.0
e 96 12 1.0
e 97 51 1.0
e 97 79 1.0
e 97 44 18.0
e 97 69 1.0
e 97 73 1.0
e 97 37 1.0
e 97 3 1.0
e 98 20 20.0
e 98 87 37.0
e 98 143 45.0
e 98 148 35.0
e 98 101 20.0
e 98 3 27.0
e 98 139 5.0
e 99 142 47.0
e 99 36 6.0
e 99 85 1.0
e 99 58 1.0
e 99 83 1.0
e 99 76 1.0
e 99 105 1.0
e 99 103 1.0
e 100 83 1.0
e 100 23 1.0
e 100 4 14.0
e 100 109 1.0
e 100 117 1.0
e 100 102 1.0
e 100 80 1.0
e 101 62 1.0
e 101 20 1.0
e 101 49 34.0
e 101 9 1.0
e 101 150 1.0
e 101 17 1.0
e 101 10 21.0
e 102 12 1.0
e 102 109 1.0
e 102 10 2.0
e 102 59 1.0
e 102 121 4.0
e 102 128 1.0
e 102 126 45.0
e 102 80 1.0
e 103 150 1.0
e 103 105 1.0
e 103 101 1.0
e 103 114 1.0
e 103 22 1.0
e 103 102 1.0
e 103 81 1.0
e 103 132 26.0
e 104 119 1.0
e 104 21 1.0
e 104 77 1.0
e 104 148 5.0
e 104 153 1.0
e 104 46 11.0
e 104 118 1.0
e 104 11 1.0
e 105 4 1.0
e 105 109 1.0
e 105 50 1.0
e 105 72 1.0
e 105 88 34.0
e 105 136 1.0
e 105 130 1.0
e 105 143 13.0
e 106 10 35.0
e 106 30 3.0
e 106 92 32.0
e 106 133 19.0
e 106 54 19.0
e 106 108 44.0
e 106 75 40.0
e 106 155 13.0
e 107 32 29.0
e 107 12 1.0
e 107 139 1.0
e 107 158 1.0
e 107 47 1.0
e 107 146 1.0
e 107 5 1.0
e 108 64 6.0
e 108 96 1.0
e 108 97 1.0
e 108 23 1.0
e 108 117 1.0
e 108 151 1.0
e 108 115 1.0
e 109 49 3.0
e 109 92 1.0
e 109 150 1.0
e 109 153 2.0
e 109 58 1.0
e 109 26 1.0
e 109 81 1.0
e 109 2 2.0
e 110 46 7.0
e 110 115 1.0
e 110 102 1.0
e 110 107 1.0
e 110 9 1.0
e 110 78 1.0
e 110 87 1.0
e 111 127 28.0
e 111 75 1.0
e 111 4 20.0
e 111 21 1.0
e 111 156 48.0
e 111 95 1.0
e 111 91 47.0
e 111 141 1.0
e 112 122 1.0
e 112 12 1.0
e 112 31 1.0
e 112 22 2.0
e 112 25 2.0
e 112 157 1.0
e 112 5 1.0
e 112 3 1.0
e 113 156 2.0
e 113 88 35.0
e 113 22 1.0
e 113 110 1.0
e 113 74 1.0
e 113 131 10.0
e 113 112 1.0
e 113 92 1.0
e 114 152 1.0
e 114 135 1.0
e 114 127 2.0
e 114 93 22.0
e 114 146 1.0
e 114 141 1.0
e 114 86 1.0
e 114 69 1.0
e 115 42 1.0
e 115 129 1.0
e 115 109 3.0
e 115 157 1.0
e 115 73 1.0
e 115 64 4.0
e 115 91 29.0
e 115 138 1.0
e 116 145 1.0
e 116 64 44.0
e 116 119 1.0
e 116 100 1.0
e 116 11 1.0
e 116 3 1.0
e 116 93 14.0
e 116 134 11.0
e 117 122 1.0
e 117 55 1.0
e 117 0 1.0
e 117 140 1.0
e 117 82 1.0
e 117 71 45.0
e 117 65 1.0
e 117 1 17.0
e 118 61 14.0
e 118 114 1.0
e 118 109 1.0
e 118 97 1.0
e 118 156 39.0
e 118 43 1.0
e 118 129 1.0
e 118 81 1.0
e 119 78 1.0
e 119 113 1.0
e 119 134 6.0
e 119 29 10.0
e 119 129 1.0
e 119 79 1.0
e 119 57 1.0
e 120 48 16.0
e 120 115 1.0
e 120 83 1.0
e 120 145 1.0
e 120 117 1.0
e 120 95 1.0
e 120 71 31.0
e 120 40 44.0
e 121 43 20.0
e 121 133 37.0
e 121 32 25.0
e 121 15 42.0
e 121 105 4.0
e 121 99 4.0
e 121 66 41.0
e 121 75 29.0
e 122 109 1.0
e 122 3 1.0
e 122 26 1.0
e 122 51 4.0
e 122 137 41.0
e 122 33 1.0
e 122 84 1.0
e 122 88 3.0
e 123 99 11.0
e 123 120 1.0
e 123 15 5.0
e 123 10 36.0
e 123 133 27.0
e 123 89 11.0
e 124 28 1.0
e 124 118 1.0
e 124 116 1.0
e 124 95 1.0
e 124 128 18.0
e 124 156 10.0
e 124 145 1.0
e 124 138 1.0
e 125 104 39.0
e 125 113 11.0
e 125 47 19.0
e 125 75 36.0
e 125 118 8.0
e 125 13 29.0
e 125 27 28.0
e 125 44 19.0
e 126 50 42.0
e 126 20 46.0
e 126 15 15.0
e 126 97 30.0
e 126 151 32.0
e 126 107 17.0
e 126 123 8.0
e 126 3 48.0
e 127 58 1.0
e 127 115 19.0
e 127 74 10.0
e 127 151 5.0
e 127 59 21.0
e 127 29 16.0
e 127 63 37.0
e 127 72 10.0
e 128 131 30.0
e 128 158 38.0
e 128 129 3.0
e 128 88 5.0
e 128 46 19.0
e 128 113 42.0
e 128 127 22.0
e 129 15 1.0
e 129 92 1.0
e 129 7 1.0
e 129 59 1.0
e 129 86 1.0
e 129 63 32.0
e 129 12 1.0
e 129 61 12.0
e 130 7 1.0
e 130 111 1.0
e 130 109 1.0
e 130 55 1.0
e 130 144 1.0
e 130 80 1.0
e 130 35 1.0
e 131 120 18.0
e 131 97 19.0
e 131 111 26.0
e 131 136 47.0
e 131 34 9.0
e 131 36 37.0
e 131 91 13.0
e 132 102 44.0
e 132 59 43.0
e 132 147 19.0
e 132 2 37.0
e 132 13 3.0
e 132 14 46.0
e 132 35 47.0
e 132 141 38.0
e 133 74 1.0
e 133 52 1.0
e 133 120 1.0
e 133 58 1.0
e 133 84 1.0
e 134 149 11.0
e 134 53 18.0
e 134 130 33.0
e 134 114 18.0
e 134 143 42.0
e 135 51 38.0
e 135 71 18.0
e 135 91 27.0
e 135 81 1.0
e 135 10 23.0
e 135 75 1.0
e 135 17 1.0
e 135 24 3.0
e 136 88 21.0
e 136 119 1.0
e 136 30 1.0
e 136 132 44.0
e 136 52 1.0
e 136 37 1.0
e 136 154 1.0
e 136 8 1.0
e 137 138 17.0
e 137 61 44.0
e 137 51 18.0
e 137 115 17.0
e 137 44 13.0
e 137 13 39.0
e 137 72 41.0
e 137 54 43.0
e 138 0 1.0
e 138 20 1.0
e 138 11 1.0
e 138 127 6.0
e 138 100 1.0
e 138 46 23.0
e 138 79 1.0
e 139 12 1.0
e 139 33 1.0
e 139 2 1.0
e 139 115 1.0
e 139 53 1.0
e 139 42 1.0
e 139 96 1.0
e 139 146 1.0
e 140 44 24.0
e 140 133 1.0
e 140 158 1.0
e 140 86 1.0
e 140 151 1.0
e 140 136 1.0
e 140 3 1.0
e 140 148 23.0
e 141 74 1.0
e 141 41 1.0
e 141 145 1.0
e 141 76 1.0
e 141 101 1.0
e 141 67 1.0
e 141 82 1.0
e 142 4 20.0
e 142 149 26.0
e 142 58 19.0
e 142 106 31.0
e 142 18 33.0
e 142 138 35.0
e 142 17 23.0
e 143 139 42.0
e 143 25 14.0
e 143 158 5.0
e 143 131 44.0
e 143 108 29.0
e 143 59 45.0
e 143 112 13.0
e 143 120 11.0
e 144 31 1.0
e 144 158 1.0
e 144 68 1.0
e 144 88 32.0
e 144 65 1.0
e 144 14 16.0
e 144 15 1.0
e 145 119 1.0
e 145 87 1.0
e 145 77 1.0
e 145 157 1.0
e 145 122 1.0
e 145 101 1.0
e 145 7 1.0
e 146 85 1.0
e 146 30 1.0
e 146 21 1.0
e 146 132 43.0
e 146 145 1.0
e 146 122 1.0
e 146 108 1.0
e 146 128 38.0
e 147 11 1.0
e 147 100 1.0
e 147 62 1.0
e 147 110 1.0
e 147 46 36.0
e 147 44 15.0
e 147 34 1.0
e 148 5 13.0
e 148 86 21.0
e 148 130 12.0
e 148 25 2.0
e 148 28 28.0
e 148 108 44.0
e 148 65 27.0
e 148 14 43.0
e 149 71 25.0
e 149 29 31.0
e 149 31 1.0
e 149 125 6.0
e 149 97 1.0
e 149 86 1.0
e 149 64 27.0
e 149 154 1.0
e 150 36 21.0
e 150 138 1.0
e 150 139 1.0
e 150 81 1.0
e 150 2 1.0
e 150 33 1.0
e 150 123 22.0
e 150 94 1.0
e 151 116 1.0
e 151 42 1.0
e 151 137 29.0
e 151 38 38.0
e 151 114 1.0
e 151 87 1.0
e 151 156 39.0
e 152 73 1.0
e 152 88 43.0
e 152 120 1.0
e 152 107 1.0
e 152 48 32.0
e 152 6 1.0
e 153 130 1.0
e 153 94 1.0
e 153 84 1.0
e 153 152 1.0
e 153 91 7.0
e 153 75 1.0
e 153 123 39.0
e 154 51 27.0
e 154 122 1.0
e 154 75 1.0
e 154 132 16.0
e 154 114 1.0
e 154 135 1.0
e 154 22 1.0
e 154 91 20.0
e 155 78 1.0
e 155 56 11.0
e 155 79 1.0
e 155 100 1.0
e 155 36 2.0
e 155 32 43.0
e 155 72 1.0
e 155 17 1.0
e 156 13 23.0
e 156 42 39.0
e 156 155 25.0
e 156 19 26.0
e 156 87 46.0
e 156 49 19.0
e 156 97 39.0
e 156 106 14.0
e 157 135 1.0
e 157 61 27.0
e 157 66 1.0
e 157 43 1.0
e 157 6 1.0
e 157 129 1.0
e 157 121 1.0
e 158 63 10.0
e 158 103 1.0
e 158 68 1.0
e 158 104 1.0
e 158 87 1.0
e 158 135 1.0
e 158 20 1.0
e 158 75 1.0
e 159 54 1.0
e 159 130 1.0
e 159 107 1.0
e 159 3 1.0
e 159 143 25.0
e 159 139 1.0
e 159 0 1.0
e 159 14 15.0
